339768687 -1 0
349210697 -2 0
72845325 1 0
202301711 -1 0
141979845 -2 0
373070525 -2 0
257991533 -1 0
155340786 2 0
177430785 -2 0
282394403 2 0
259155095 1 0
201158008 1 0
355900585 -2 0
204569278 1 0
280603918 -2 0
206934181 1 0
186198026 2 0
58760401 -1 0
191783297 1 0
